runtime_files/mcpf.tsp
NAME : mtspf
COMMENT : file for mtspf test
TYPE : ATSP
DIMENSION : 33
EDGE_WEIGHT_TYPE : EXPLICIT
EDGE_WEIGHT_FORMAT : FULL_MATRIX
EDGE_WEIGHT_SECTION
999999 999999 999999 999999 999999 199 999999 999999 999999 999999 999999 999999 999999 201 999999 999999 999999 999999 199 999999 999999 999999 999999 202 999999 999999 999999 999999 200 999999 999999 999999 999999 
999999 999999 999999 999999 999999 999999 197 199 999999 999999 999999 999999 999999 999999 199 999999 999999 999999 999999 197 999999 999999 999999 999999 200 999999 999999 999999 999999 203 999999 999999 999999 
999999 999999 999999 999999 999999 999999 999999 999999 199 199 999999 999999 999999 999999 999999 197 999999 999999 999999 999999 197 999999 999999 999999 999999 200 999999 999999 999999 999999 200 999999 999999 
999999 999999 999999 999999 999999 999999 999999 999999 999999 999999 197 204 999999 999999 999999 999999 197 999999 999999 999999 999999 199 999999 999999 999999 999999 196 999999 999999 999999 999999 198 999999 
999999 999999 999999 999999 999999 999999 999999 999999 999999 999999 999999 999999 206 999999 999999 999999 999999 199 999999 999999 999999 999999 201 999999 999999 999999 999999 198 999999 999999 999999 999999 200 
999999 999999 999999 999999 999999 999999 0 194 999999 999999 999999 999999 999999 999999 202 999999 999999 999999 999999 202 999999 999999 999999 999999 197 999999 999999 999999 999999 200 999999 999999 999999 
999999 999999 999999 999999 999999 0 999999 999999 999999 999999 999999 999999 999999 202 999999 999999 999999 999999 202 999999 999999 999999 999999 197 999999 999999 999999 999999 199 999999 999999 999999 999999 
999999 999999 999999 999999 999999 999999 999999 999999 0 194 999999 999999 999999 999999 999999 204 999999 999999 999999 999999 204 999999 999999 999999 999999 199 999999 999999 999999 999999 207 999999 999999 
999999 999999 999999 999999 999999 999999 194 0 999999 999999 999999 999999 999999 999999 204 999999 999999 999999 999999 204 999999 999999 999999 999999 199 999999 999999 999999 999999 202 999999 999999 999999 
999999 999999 999999 999999 999999 999999 999999 999999 999999 999999 0 199 999999 999999 999999 999999 202 999999 999999 999999 999999 202 999999 999999 999999 999999 197 999999 999999 999999 999999 203 999999 
999999 999999 999999 999999 999999 999999 999999 999999 194 0 999999 999999 999999 999999 999999 202 999999 999999 999999 999999 202 999999 999999 999999 999999 197 999999 999999 999999 999999 205 999999 999999 
999999 999999 999999 999999 999999 999999 999999 999999 999999 999999 999999 999999 0 999999 999999 999999 999999 201 999999 999999 999999 999999 201 999999 999999 999999 999999 200 999999 999999 999999 999999 200 
999999 999999 999999 999999 999999 999999 999999 999999 999999 999999 199 0 999999 999999 999999 999999 201 999999 999999 999999 999999 201 999999 999999 999999 999999 200 999999 999999 999999 999999 202 999999 
999999 999999 999999 999999 999999 999999 202 204 999999 999999 999999 999999 999999 999999 0 999999 999999 999999 999999 194 999999 999999 999999 999999 197 999999 999999 999999 999999 196 999999 999999 999999 
999999 999999 999999 999999 999999 999999 999999 999999 204 202 999999 999999 999999 999999 999999 0 999999 999999 999999 999999 194 999999 999999 999999 999999 197 999999 999999 999999 999999 195 999999 999999 
999999 999999 999999 999999 999999 999999 999999 999999 999999 999999 202 201 999999 999999 999999 999999 0 999999 999999 999999 999999 194 999999 999999 999999 999999 197 999999 999999 999999 999999 193 999999 
999999 999999 999999 999999 999999 999999 999999 999999 999999 999999 999999 999999 201 999999 999999 999999 999999 0 999999 999999 999999 999999 194 999999 999999 999999 999999 197 999999 999999 999999 999999 193 
999999 999999 999999 999999 999999 202 999999 999999 999999 999999 999999 999999 999999 0 999999 999999 999999 999999 194 999999 999999 999999 999999 197 999999 999999 999999 999999 195 999999 999999 999999 999999 
999999 999999 999999 999999 999999 999999 202 204 999999 999999 999999 999999 999999 999999 194 999999 999999 999999 999999 0 999999 999999 999999 999999 197 999999 999999 999999 999999 198 999999 999999 999999 
999999 999999 999999 999999 999999 999999 999999 999999 204 202 999999 999999 999999 999999 999999 194 999999 999999 999999 999999 0 999999 999999 999999 999999 197 999999 999999 999999 999999 195 999999 999999 
999999 999999 999999 999999 999999 999999 999999 999999 999999 999999 202 201 999999 999999 999999 999999 194 999999 999999 999999 999999 0 999999 999999 999999 999999 197 999999 999999 999999 999999 193 999999 
999999 999999 999999 999999 999999 999999 999999 999999 999999 999999 999999 999999 201 999999 999999 999999 999999 194 999999 999999 999999 999999 0 999999 999999 999999 999999 197 999999 999999 999999 999999 193 
999999 999999 999999 999999 999999 202 999999 999999 999999 999999 999999 999999 999999 194 999999 999999 999999 999999 0 999999 999999 999999 999999 197 999999 999999 999999 999999 195 999999 999999 999999 999999 
999999 999999 999999 999999 999999 999999 197 199 999999 999999 999999 999999 999999 999999 197 999999 999999 999999 999999 197 999999 999999 999999 999999 0 999999 999999 999999 999999 195 999999 999999 999999 
999999 999999 999999 999999 999999 999999 999999 999999 199 197 999999 999999 999999 999999 999999 197 999999 999999 999999 999999 197 999999 999999 999999 999999 0 999999 999999 999999 999999 200 999999 999999 
999999 999999 999999 999999 999999 999999 999999 999999 999999 999999 197 200 999999 999999 999999 999999 197 999999 999999 999999 999999 197 999999 999999 999999 999999 0 999999 999999 999999 999999 198 999999 
999999 999999 999999 999999 999999 999999 999999 999999 999999 999999 999999 999999 200 999999 999999 999999 999999 197 999999 999999 999999 999999 197 999999 999999 999999 999999 0 999999 999999 999999 999999 196 
999999 999999 999999 999999 999999 197 999999 999999 999999 999999 999999 999999 999999 197 999999 999999 999999 999999 197 999999 999999 999999 999999 0 999999 999999 999999 999999 196 999999 999999 999999 999999 
0 0 0 0 0 999999 999999 999999 999999 999999 999999 999999 999999 999999 999999 999999 999999 999999 999999 999999 999999 999999 999999 999999 999999 999999 999999 999999 0 999999 999999 999999 999999 
0 0 0 0 0 999999 999999 999999 999999 999999 999999 999999 999999 999999 999999 999999 999999 999999 999999 999999 999999 999999 999999 999999 999999 999999 999999 999999 999999 0 999999 999999 999999 
0 0 0 0 0 999999 999999 999999 999999 999999 999999 999999 999999 999999 999999 999999 999999 999999 999999 999999 999999 999999 999999 999999 999999 999999 999999 999999 999999 999999 0 999999 999999 
0 0 0 0 0 999999 999999 999999 999999 999999 999999 999999 999999 999999 999999 999999 999999 999999 999999 999999 999999 999999 999999 999999 999999 999999 999999 999999 999999 999999 999999 0 999999 
0 0 0 0 0 999999 999999 999999 999999 999999 999999 999999 999999 999999 999999 999999 999999 999999 999999 999999 999999 999999 999999 999999 999999 999999 999999 999999 999999 999999 999999 999999 0 
